JulietBench/Juliet_Based_Patch_Bench/linux/CWE-190-Integer-Overflow-or-Wraparound/CVE_2018_13406_9f645bcc566a1e9f921bdae7528a01ced5bc3713/Resultuvesafb_setcmap_Snippet_patch2NEQ.smt2
; benchmark generated from python API
(set-info :status unknown)
(declare-fun R () (_ BitVec 32))
(declare-fun rsi () (_ BitVec 64))
(declare-fun rdi () (_ BitVec 64))
(assert
 (let (($x33 (and (distinct (_ bv1 32) R) true)))
 (let ((?x11 ((_ extract 31 0) rsi)))
 (let ((?x6 ((_ extract 31 0) rdi)))
 (let ((?x14 (bvmul ?x6 ?x11)))
 (let (($x19 (and (distinct R ?x14) true)))
 (let (($x32 (and $x19 $x33)))
 (let (($x25 (= (_ bv1 32) R)))
 (let (($x18 (= R ?x14)))
 (let (($x34 (and $x18 $x25)))
 (let (($x31 (or $x34 $x32)))
 (not $x31))))))))))))
(check-sat)
